c Random generated cnf formula, satisfiable: false
p cnf 10 50
2 8 9 0
-4 9 -8 0
5 -4 7 0
3 -4 -6 0
10 -7 -1 0
-10 5 -3 0
-7 -2 -5 0
6 -3 4 0
-10 -4 7 0
10 -4 7 0
8 5 6 0
-10 -5 -7 0
2 -6 1 0
-6 -5 7 0
8 1 5 0
-9 3 7 0
-10 1 4 0
-7 -9 3 0
6 1 10 0
4 -3 5 0
8 -5 -6 0
10 8 -7 0
-1 10 6 0
6 -1 -2 0
10 -5 7 0
9 4 8 0
1 -8 -10 0
-8 -1 -9 0
8 7 -5 0
5 9 -2 0
1 -4 -2 0
2 9 -8 0
2 10 -4 0
10 5 9 0
8 -3 -2 0
6 3 2 0
-1 -8 9 0
3 8 5 0
4 -1 10 0
-10 -6 -3 0
1 9 -8 0
1 -9 4 0
-4 1 -6 0
7 -6 -10 0
4 -5 -9 0
3 4 -8 0
4 7 -3 0
-3 -10 -2 0
3 10 4 0
-8 -5 10 0
